p cnf 337 1539
c p weight 138 0 0
c p weight -138 1 0
c p weight 139 1 0
c p weight -139 1 0
c p weight 334 -1 0
c p weight -334 1 0
c p weight 337 0.5 0
337 0
-133 0
-131 0
-129 0
-127 0
-125 0
-123 0
-121 0
-119 0
-117 0
-115 0
-113 0
-111 0
-109 0
-107 0
-105 0
-103 0
-101 0
-99 0
-97 0
-95 0
-93 0
-91 0
-89 0
-87 0
-85 0
-83 0
-81 0
-79 0
-77 0
-75 0
-73 0
-71 0
-69 0
-67 0
-65 0
-63 0
-61 0
-59 0
-57 0
-55 0
-53 0
-51 0
-49 0
-47 0
-45 0
-43 0
-41 0
-39 0
-37 0
-35 0
-33 0
-31 0
-29 0
-27 0
-25 0
-23 0
-21 0
-19 0
-17 0
-15 0
-13 0
-11 0
-9 0
-7 0
-5 0
-3 0
-1 0
134 -133 131 0
134 -133 132 0
-134 133 131 0
-134 133 132 0
134 133 -131 -132 0
-134 -133 -131 -132 0
135 131 -132 0
135 -131 132 0
-135 131 132 0
-135 -131 -132 0
136 137 -134 0
136 -134 135 0
-136 137 134 0
-136 134 135 0
136 -134 -131 0
-136 134 -131 0
136 -137 134 131 -135 0
-136 -137 -134 131 -135 0
137 -131 135 0
-137 131 135 0
-138 135 0
137 -138 -131 0
-137 -138 131 0
137 138 131 -135 0
-137 138 -131 -135 0
-139 135 0
137 -139 131 0
-137 -139 -131 0
137 139 -131 -135 0
-137 139 131 -135 0
140 -136 137 0
140 -136 135 0
-140 136 137 0
-140 136 135 0
140 136 -137 -135 0
-140 -136 -137 -135 0
141 137 -135 0
141 -137 135 0
-141 137 135 0
-141 -137 -135 0
142 -140 137 0
142 -140 130 0
-142 140 137 0
-142 140 130 0
142 -140 129 -141 0
142 -140 -129 141 0
-142 140 129 -141 0
-142 140 -129 141 0
142 140 -137 129 141 -130 0
142 140 -137 -129 -141 -130 0
-142 -140 -137 129 141 -130 0
-142 -140 -137 -129 -141 -130 0
144 137 -129 0
144 -137 129 0
-144 137 129 0
-144 -137 -129 0
143 141 -130 0
143 -141 130 0
-143 141 130 0
-143 -141 -130 0
145 -142 144 0
145 -142 128 0
-145 142 144 0
-145 142 128 0
145 -142 127 -130 0
145 -142 -127 130 0
-145 142 127 -130 0
-145 142 -127 130 0
145 142 -144 127 130 -128 0
145 142 -144 -127 -130 -128 0
-145 -142 -144 127 130 -128 0
-145 -142 -144 -127 -130 -128 0
147 144 -127 0
147 -144 127 0
-147 144 127 0
-147 -144 -127 0
146 130 -128 0
146 -130 128 0
-146 130 128 0
-146 -130 -128 0
148 -145 147 0
148 -145 126 0
-148 145 147 0
-148 145 126 0
148 -145 125 -128 0
148 -145 -125 128 0
-148 145 125 -128 0
-148 145 -125 128 0
148 145 -147 125 128 -126 0
148 145 -147 -125 -128 -126 0
-148 -145 -147 125 128 -126 0
-148 -145 -147 -125 -128 -126 0
150 147 -125 0
150 -147 125 0
-150 147 125 0
-150 -147 -125 0
149 128 -126 0
149 -128 126 0
-149 128 126 0
-149 -128 -126 0
151 -148 150 0
151 -148 124 0
-151 148 150 0
-151 148 124 0
151 -148 123 -126 0
151 -148 -123 126 0
-151 148 123 -126 0
-151 148 -123 126 0
151 148 -150 123 126 -124 0
151 148 -150 -123 -126 -124 0
-151 -148 -150 123 126 -124 0
-151 -148 -150 -123 -126 -124 0
153 150 -123 0
153 -150 123 0
-153 150 123 0
-153 -150 -123 0
152 126 -124 0
152 -126 124 0
-152 126 124 0
-152 -126 -124 0
154 -151 153 0
154 -151 122 0
-154 151 153 0
-154 151 122 0
154 -151 121 -124 0
154 -151 -121 124 0
-154 151 121 -124 0
-154 151 -121 124 0
154 151 -153 121 124 -122 0
154 151 -153 -121 -124 -122 0
-154 -151 -153 121 124 -122 0
-154 -151 -153 -121 -124 -122 0
156 153 -121 0
156 -153 121 0
-156 153 121 0
-156 -153 -121 0
155 124 -122 0
155 -124 122 0
-155 124 122 0
-155 -124 -122 0
157 -154 156 0
157 -154 120 0
-157 154 156 0
-157 154 120 0
157 -154 119 -122 0
157 -154 -119 122 0
-157 154 119 -122 0
-157 154 -119 122 0
157 154 -156 119 122 -120 0
157 154 -156 -119 -122 -120 0
-157 -154 -156 119 122 -120 0
-157 -154 -156 -119 -122 -120 0
159 156 -119 0
159 -156 119 0
-159 156 119 0
-159 -156 -119 0
158 122 -120 0
158 -122 120 0
-158 122 120 0
-158 -122 -120 0
160 -157 159 0
160 -157 118 0
-160 157 159 0
-160 157 118 0
160 -157 117 -120 0
160 -157 -117 120 0
-160 157 117 -120 0
-160 157 -117 120 0
160 157 -159 117 120 -118 0
160 157 -159 -117 -120 -118 0
-160 -157 -159 117 120 -118 0
-160 -157 -159 -117 -120 -118 0
162 159 -117 0
162 -159 117 0
-162 159 117 0
-162 -159 -117 0
161 120 -118 0
161 -120 118 0
-161 120 118 0
-161 -120 -118 0
163 -160 162 0
163 -160 116 0
-163 160 162 0
-163 160 116 0
163 -160 115 -118 0
163 -160 -115 118 0
-163 160 115 -118 0
-163 160 -115 118 0
163 160 -162 115 118 -116 0
163 160 -162 -115 -118 -116 0
-163 -160 -162 115 118 -116 0
-163 -160 -162 -115 -118 -116 0
165 162 -115 0
165 -162 115 0
-165 162 115 0
-165 -162 -115 0
164 118 -116 0
164 -118 116 0
-164 118 116 0
-164 -118 -116 0
166 -163 165 0
166 -163 114 0
-166 163 165 0
-166 163 114 0
166 -163 113 -116 0
166 -163 -113 116 0
-166 163 113 -116 0
-166 163 -113 116 0
166 163 -165 113 116 -114 0
166 163 -165 -113 -116 -114 0
-166 -163 -165 113 116 -114 0
-166 -163 -165 -113 -116 -114 0
168 165 -113 0
168 -165 113 0
-168 165 113 0
-168 -165 -113 0
167 116 -114 0
167 -116 114 0
-167 116 114 0
-167 -116 -114 0
169 -166 168 0
169 -166 112 0
-169 166 168 0
-169 166 112 0
169 -166 111 -114 0
169 -166 -111 114 0
-169 166 111 -114 0
-169 166 -111 114 0
169 166 -168 111 114 -112 0
169 166 -168 -111 -114 -112 0
-169 -166 -168 111 114 -112 0
-169 -166 -168 -111 -114 -112 0
171 168 -111 0
171 -168 111 0
-171 168 111 0
-171 -168 -111 0
170 114 -112 0
170 -114 112 0
-170 114 112 0
-170 -114 -112 0
172 -169 171 0
172 -169 110 0
-172 169 171 0
-172 169 110 0
172 -169 109 -112 0
172 -169 -109 112 0
-172 169 109 -112 0
-172 169 -109 112 0
172 169 -171 109 112 -110 0
172 169 -171 -109 -112 -110 0
-172 -169 -171 109 112 -110 0
-172 -169 -171 -109 -112 -110 0
174 171 -109 0
174 -171 109 0
-174 171 109 0
-174 -171 -109 0
173 112 -110 0
173 -112 110 0
-173 112 110 0
-173 -112 -110 0
175 -172 174 0
175 -172 108 0
-175 172 174 0
-175 172 108 0
175 -172 107 -110 0
175 -172 -107 110 0
-175 172 107 -110 0
-175 172 -107 110 0
175 172 -174 107 110 -108 0
175 172 -174 -107 -110 -108 0
-175 -172 -174 107 110 -108 0
-175 -172 -174 -107 -110 -108 0
177 174 -107 0
177 -174 107 0
-177 174 107 0
-177 -174 -107 0
176 110 -108 0
176 -110 108 0
-176 110 108 0
-176 -110 -108 0
178 -175 177 0
178 -175 106 0
-178 175 177 0
-178 175 106 0
178 -175 105 -108 0
178 -175 -105 108 0
-178 175 105 -108 0
-178 175 -105 108 0
178 175 -177 105 108 -106 0
178 175 -177 -105 -108 -106 0
-178 -175 -177 105 108 -106 0
-178 -175 -177 -105 -108 -106 0
180 177 -105 0
180 -177 105 0
-180 177 105 0
-180 -177 -105 0
179 108 -106 0
179 -108 106 0
-179 108 106 0
-179 -108 -106 0
181 -178 180 0
181 -178 104 0
-181 178 180 0
-181 178 104 0
181 -178 103 -106 0
181 -178 -103 106 0
-181 178 103 -106 0
-181 178 -103 106 0
181 178 -180 103 106 -104 0
181 178 -180 -103 -106 -104 0
-181 -178 -180 103 106 -104 0
-181 -178 -180 -103 -106 -104 0
183 180 -103 0
183 -180 103 0
-183 180 103 0
-183 -180 -103 0
182 106 -104 0
182 -106 104 0
-182 106 104 0
-182 -106 -104 0
184 -181 183 0
184 -181 102 0
-184 181 183 0
-184 181 102 0
184 -181 101 -104 0
184 -181 -101 104 0
-184 181 101 -104 0
-184 181 -101 104 0
184 181 -183 101 104 -102 0
184 181 -183 -101 -104 -102 0
-184 -181 -183 101 104 -102 0
-184 -181 -183 -101 -104 -102 0
186 183 -101 0
186 -183 101 0
-186 183 101 0
-186 -183 -101 0
185 104 -102 0
185 -104 102 0
-185 104 102 0
-185 -104 -102 0
187 -184 186 0
187 -184 100 0
-187 184 186 0
-187 184 100 0
187 -184 99 -102 0
187 -184 -99 102 0
-187 184 99 -102 0
-187 184 -99 102 0
187 184 -186 99 102 -100 0
187 184 -186 -99 -102 -100 0
-187 -184 -186 99 102 -100 0
-187 -184 -186 -99 -102 -100 0
189 186 -99 0
189 -186 99 0
-189 186 99 0
-189 -186 -99 0
188 102 -100 0
188 -102 100 0
-188 102 100 0
-188 -102 -100 0
190 -187 189 0
190 -187 98 0
-190 187 189 0
-190 187 98 0
190 -187 97 -100 0
190 -187 -97 100 0
-190 187 97 -100 0
-190 187 -97 100 0
190 187 -189 97 100 -98 0
190 187 -189 -97 -100 -98 0
-190 -187 -189 97 100 -98 0
-190 -187 -189 -97 -100 -98 0
192 189 -97 0
192 -189 97 0
-192 189 97 0
-192 -189 -97 0
191 100 -98 0
191 -100 98 0
-191 100 98 0
-191 -100 -98 0
193 -190 192 0
193 -190 96 0
-193 190 192 0
-193 190 96 0
193 -190 95 -98 0
193 -190 -95 98 0
-193 190 95 -98 0
-193 190 -95 98 0
193 190 -192 95 98 -96 0
193 190 -192 -95 -98 -96 0
-193 -190 -192 95 98 -96 0
-193 -190 -192 -95 -98 -96 0
195 192 -95 0
195 -192 95 0
-195 192 95 0
-195 -192 -95 0
194 98 -96 0
194 -98 96 0
-194 98 96 0
-194 -98 -96 0
196 -193 195 0
196 -193 94 0
-196 193 195 0
-196 193 94 0
196 -193 93 -96 0
196 -193 -93 96 0
-196 193 93 -96 0
-196 193 -93 96 0
196 193 -195 93 96 -94 0
196 193 -195 -93 -96 -94 0
-196 -193 -195 93 96 -94 0
-196 -193 -195 -93 -96 -94 0
198 195 -93 0
198 -195 93 0
-198 195 93 0
-198 -195 -93 0
197 96 -94 0
197 -96 94 0
-197 96 94 0
-197 -96 -94 0
199 -196 198 0
199 -196 92 0
-199 196 198 0
-199 196 92 0
199 -196 91 -94 0
199 -196 -91 94 0
-199 196 91 -94 0
-199 196 -91 94 0
199 196 -198 91 94 -92 0
199 196 -198 -91 -94 -92 0
-199 -196 -198 91 94 -92 0
-199 -196 -198 -91 -94 -92 0
201 198 -91 0
201 -198 91 0
-201 198 91 0
-201 -198 -91 0
200 94 -92 0
200 -94 92 0
-200 94 92 0
-200 -94 -92 0
202 -199 201 0
202 -199 90 0
-202 199 201 0
-202 199 90 0
202 -199 89 -92 0
202 -199 -89 92 0
-202 199 89 -92 0
-202 199 -89 92 0
202 199 -201 89 92 -90 0
202 199 -201 -89 -92 -90 0
-202 -199 -201 89 92 -90 0
-202 -199 -201 -89 -92 -90 0
204 201 -89 0
204 -201 89 0
-204 201 89 0
-204 -201 -89 0
203 92 -90 0
203 -92 90 0
-203 92 90 0
-203 -92 -90 0
205 -202 204 0
205 -202 88 0
-205 202 204 0
-205 202 88 0
205 -202 87 -90 0
205 -202 -87 90 0
-205 202 87 -90 0
-205 202 -87 90 0
205 202 -204 87 90 -88 0
205 202 -204 -87 -90 -88 0
-205 -202 -204 87 90 -88 0
-205 -202 -204 -87 -90 -88 0
207 204 -87 0
207 -204 87 0
-207 204 87 0
-207 -204 -87 0
206 90 -88 0
206 -90 88 0
-206 90 88 0
-206 -90 -88 0
208 -205 207 0
208 -205 86 0
-208 205 207 0
-208 205 86 0
208 -205 85 -88 0
208 -205 -85 88 0
-208 205 85 -88 0
-208 205 -85 88 0
208 205 -207 85 88 -86 0
208 205 -207 -85 -88 -86 0
-208 -205 -207 85 88 -86 0
-208 -205 -207 -85 -88 -86 0
210 207 -85 0
210 -207 85 0
-210 207 85 0
-210 -207 -85 0
209 88 -86 0
209 -88 86 0
-209 88 86 0
-209 -88 -86 0
211 -208 210 0
211 -208 84 0
-211 208 210 0
-211 208 84 0
211 -208 83 -86 0
211 -208 -83 86 0
-211 208 83 -86 0
-211 208 -83 86 0
211 208 -210 83 86 -84 0
211 208 -210 -83 -86 -84 0
-211 -208 -210 83 86 -84 0
-211 -208 -210 -83 -86 -84 0
213 210 -83 0
213 -210 83 0
-213 210 83 0
-213 -210 -83 0
212 86 -84 0
212 -86 84 0
-212 86 84 0
-212 -86 -84 0
214 -211 213 0
214 -211 82 0
-214 211 213 0
-214 211 82 0
214 -211 81 -84 0
214 -211 -81 84 0
-214 211 81 -84 0
-214 211 -81 84 0
214 211 -213 81 84 -82 0
214 211 -213 -81 -84 -82 0
-214 -211 -213 81 84 -82 0
-214 -211 -213 -81 -84 -82 0
216 213 -81 0
216 -213 81 0
-216 213 81 0
-216 -213 -81 0
215 84 -82 0
215 -84 82 0
-215 84 82 0
-215 -84 -82 0
217 -214 216 0
217 -214 80 0
-217 214 216 0
-217 214 80 0
217 -214 79 -82 0
217 -214 -79 82 0
-217 214 79 -82 0
-217 214 -79 82 0
217 214 -216 79 82 -80 0
217 214 -216 -79 -82 -80 0
-217 -214 -216 79 82 -80 0
-217 -214 -216 -79 -82 -80 0
219 216 -79 0
219 -216 79 0
-219 216 79 0
-219 -216 -79 0
218 82 -80 0
218 -82 80 0
-218 82 80 0
-218 -82 -80 0
220 -217 219 0
220 -217 78 0
-220 217 219 0
-220 217 78 0
220 -217 77 -80 0
220 -217 -77 80 0
-220 217 77 -80 0
-220 217 -77 80 0
220 217 -219 77 80 -78 0
220 217 -219 -77 -80 -78 0
-220 -217 -219 77 80 -78 0
-220 -217 -219 -77 -80 -78 0
222 219 -77 0
222 -219 77 0
-222 219 77 0
-222 -219 -77 0
221 80 -78 0
221 -80 78 0
-221 80 78 0
-221 -80 -78 0
223 -220 222 0
223 -220 76 0
-223 220 222 0
-223 220 76 0
223 -220 75 -78 0
223 -220 -75 78 0
-223 220 75 -78 0
-223 220 -75 78 0
223 220 -222 75 78 -76 0
223 220 -222 -75 -78 -76 0
-223 -220 -222 75 78 -76 0
-223 -220 -222 -75 -78 -76 0
225 222 -75 0
225 -222 75 0
-225 222 75 0
-225 -222 -75 0
224 78 -76 0
224 -78 76 0
-224 78 76 0
-224 -78 -76 0
226 -223 225 0
226 -223 74 0
-226 223 225 0
-226 223 74 0
226 -223 73 -76 0
226 -223 -73 76 0
-226 223 73 -76 0
-226 223 -73 76 0
226 223 -225 73 76 -74 0
226 223 -225 -73 -76 -74 0
-226 -223 -225 73 76 -74 0
-226 -223 -225 -73 -76 -74 0
228 225 -73 0
228 -225 73 0
-228 225 73 0
-228 -225 -73 0
227 76 -74 0
227 -76 74 0
-227 76 74 0
-227 -76 -74 0
229 -226 228 0
229 -226 72 0
-229 226 228 0
-229 226 72 0
229 -226 71 -74 0
229 -226 -71 74 0
-229 226 71 -74 0
-229 226 -71 74 0
229 226 -228 71 74 -72 0
229 226 -228 -71 -74 -72 0
-229 -226 -228 71 74 -72 0
-229 -226 -228 -71 -74 -72 0
231 228 -71 0
231 -228 71 0
-231 228 71 0
-231 -228 -71 0
230 74 -72 0
230 -74 72 0
-230 74 72 0
-230 -74 -72 0
232 -229 231 0
232 -229 70 0
-232 229 231 0
-232 229 70 0
232 -229 69 -72 0
232 -229 -69 72 0
-232 229 69 -72 0
-232 229 -69 72 0
232 229 -231 69 72 -70 0
232 229 -231 -69 -72 -70 0
-232 -229 -231 69 72 -70 0
-232 -229 -231 -69 -72 -70 0
234 231 -69 0
234 -231 69 0
-234 231 69 0
-234 -231 -69 0
233 72 -70 0
233 -72 70 0
-233 72 70 0
-233 -72 -70 0
235 -232 234 0
235 -232 68 0
-235 232 234 0
-235 232 68 0
235 -232 67 -70 0
235 -232 -67 70 0
-235 232 67 -70 0
-235 232 -67 70 0
235 232 -234 67 70 -68 0
235 232 -234 -67 -70 -68 0
-235 -232 -234 67 70 -68 0
-235 -232 -234 -67 -70 -68 0
237 234 -67 0
237 -234 67 0
-237 234 67 0
-237 -234 -67 0
236 70 -68 0
236 -70 68 0
-236 70 68 0
-236 -70 -68 0
238 -235 237 0
238 -235 66 0
-238 235 237 0
-238 235 66 0
238 -235 65 -68 0
238 -235 -65 68 0
-238 235 65 -68 0
-238 235 -65 68 0
238 235 -237 65 68 -66 0
238 235 -237 -65 -68 -66 0
-238 -235 -237 65 68 -66 0
-238 -235 -237 -65 -68 -66 0
240 237 -65 0
240 -237 65 0
-240 237 65 0
-240 -237 -65 0
239 68 -66 0
239 -68 66 0
-239 68 66 0
-239 -68 -66 0
241 -238 240 0
241 -238 64 0
-241 238 240 0
-241 238 64 0
241 -238 63 -66 0
241 -238 -63 66 0
-241 238 63 -66 0
-241 238 -63 66 0
241 238 -240 63 66 -64 0
241 238 -240 -63 -66 -64 0
-241 -238 -240 63 66 -64 0
-241 -238 -240 -63 -66 -64 0
243 240 -63 0
243 -240 63 0
-243 240 63 0
-243 -240 -63 0
242 66 -64 0
242 -66 64 0
-242 66 64 0
-242 -66 -64 0
244 -241 243 0
244 -241 62 0
-244 241 243 0
-244 241 62 0
244 -241 61 -64 0
244 -241 -61 64 0
-244 241 61 -64 0
-244 241 -61 64 0
244 241 -243 61 64 -62 0
244 241 -243 -61 -64 -62 0
-244 -241 -243 61 64 -62 0
-244 -241 -243 -61 -64 -62 0
246 243 -61 0
246 -243 61 0
-246 243 61 0
-246 -243 -61 0
245 64 -62 0
245 -64 62 0
-245 64 62 0
-245 -64 -62 0
247 -244 246 0
247 -244 60 0
-247 244 246 0
-247 244 60 0
247 -244 59 -62 0
247 -244 -59 62 0
-247 244 59 -62 0
-247 244 -59 62 0
247 244 -246 59 62 -60 0
247 244 -246 -59 -62 -60 0
-247 -244 -246 59 62 -60 0
-247 -244 -246 -59 -62 -60 0
249 246 -59 0
249 -246 59 0
-249 246 59 0
-249 -246 -59 0
248 62 -60 0
248 -62 60 0
-248 62 60 0
-248 -62 -60 0
250 -247 249 0
250 -247 58 0
-250 247 249 0
-250 247 58 0
250 -247 57 -60 0
250 -247 -57 60 0
-250 247 57 -60 0
-250 247 -57 60 0
250 247 -249 57 60 -58 0
250 247 -249 -57 -60 -58 0
-250 -247 -249 57 60 -58 0
-250 -247 -249 -57 -60 -58 0
252 249 -57 0
252 -249 57 0
-252 249 57 0
-252 -249 -57 0
251 60 -58 0
251 -60 58 0
-251 60 58 0
-251 -60 -58 0
253 -250 252 0
253 -250 56 0
-253 250 252 0
-253 250 56 0
253 -250 55 -58 0
253 -250 -55 58 0
-253 250 55 -58 0
-253 250 -55 58 0
253 250 -252 55 58 -56 0
253 250 -252 -55 -58 -56 0
-253 -250 -252 55 58 -56 0
-253 -250 -252 -55 -58 -56 0
255 252 -55 0
255 -252 55 0
-255 252 55 0
-255 -252 -55 0
254 58 -56 0
254 -58 56 0
-254 58 56 0
-254 -58 -56 0
256 -253 255 0
256 -253 54 0
-256 253 255 0
-256 253 54 0
256 -253 53 -56 0
256 -253 -53 56 0
-256 253 53 -56 0
-256 253 -53 56 0
256 253 -255 53 56 -54 0
256 253 -255 -53 -56 -54 0
-256 -253 -255 53 56 -54 0
-256 -253 -255 -53 -56 -54 0
258 255 -53 0
258 -255 53 0
-258 255 53 0
-258 -255 -53 0
257 56 -54 0
257 -56 54 0
-257 56 54 0
-257 -56 -54 0
259 -256 258 0
259 -256 52 0
-259 256 258 0
-259 256 52 0
259 -256 51 -54 0
259 -256 -51 54 0
-259 256 51 -54 0
-259 256 -51 54 0
259 256 -258 51 54 -52 0
259 256 -258 -51 -54 -52 0
-259 -256 -258 51 54 -52 0
-259 -256 -258 -51 -54 -52 0
261 258 -51 0
261 -258 51 0
-261 258 51 0
-261 -258 -51 0
260 54 -52 0
260 -54 52 0
-260 54 52 0
-260 -54 -52 0
262 -259 261 0
262 -259 50 0
-262 259 261 0
-262 259 50 0
262 -259 49 -52 0
262 -259 -49 52 0
-262 259 49 -52 0
-262 259 -49 52 0
262 259 -261 49 52 -50 0
262 259 -261 -49 -52 -50 0
-262 -259 -261 49 52 -50 0
-262 -259 -261 -49 -52 -50 0
264 261 -49 0
264 -261 49 0
-264 261 49 0
-264 -261 -49 0
263 52 -50 0
263 -52 50 0
-263 52 50 0
-263 -52 -50 0
265 -262 264 0
265 -262 48 0
-265 262 264 0
-265 262 48 0
265 -262 47 -50 0
265 -262 -47 50 0
-265 262 47 -50 0
-265 262 -47 50 0
265 262 -264 47 50 -48 0
265 262 -264 -47 -50 -48 0
-265 -262 -264 47 50 -48 0
-265 -262 -264 -47 -50 -48 0
267 264 -47 0
267 -264 47 0
-267 264 47 0
-267 -264 -47 0
266 50 -48 0
266 -50 48 0
-266 50 48 0
-266 -50 -48 0
268 -265 267 0
268 -265 46 0
-268 265 267 0
-268 265 46 0
268 -265 45 -48 0
268 -265 -45 48 0
-268 265 45 -48 0
-268 265 -45 48 0
268 265 -267 45 48 -46 0
268 265 -267 -45 -48 -46 0
-268 -265 -267 45 48 -46 0
-268 -265 -267 -45 -48 -46 0
270 267 -45 0
270 -267 45 0
-270 267 45 0
-270 -267 -45 0
269 48 -46 0
269 -48 46 0
-269 48 46 0
-269 -48 -46 0
271 -268 270 0
271 -268 44 0
-271 268 270 0
-271 268 44 0
271 -268 43 -46 0
271 -268 -43 46 0
-271 268 43 -46 0
-271 268 -43 46 0
271 268 -270 43 46 -44 0
271 268 -270 -43 -46 -44 0
-271 -268 -270 43 46 -44 0
-271 -268 -270 -43 -46 -44 0
273 270 -43 0
273 -270 43 0
-273 270 43 0
-273 -270 -43 0
272 46 -44 0
272 -46 44 0
-272 46 44 0
-272 -46 -44 0
274 -271 273 0
274 -271 42 0
-274 271 273 0
-274 271 42 0
274 -271 41 -44 0
274 -271 -41 44 0
-274 271 41 -44 0
-274 271 -41 44 0
274 271 -273 41 44 -42 0
274 271 -273 -41 -44 -42 0
-274 -271 -273 41 44 -42 0
-274 -271 -273 -41 -44 -42 0
276 273 -41 0
276 -273 41 0
-276 273 41 0
-276 -273 -41 0
275 44 -42 0
275 -44 42 0
-275 44 42 0
-275 -44 -42 0
277 -274 276 0
277 -274 40 0
-277 274 276 0
-277 274 40 0
277 -274 39 -42 0
277 -274 -39 42 0
-277 274 39 -42 0
-277 274 -39 42 0
277 274 -276 39 42 -40 0
277 274 -276 -39 -42 -40 0
-277 -274 -276 39 42 -40 0
-277 -274 -276 -39 -42 -40 0
279 276 -39 0
279 -276 39 0
-279 276 39 0
-279 -276 -39 0
278 42 -40 0
278 -42 40 0
-278 42 40 0
-278 -42 -40 0
280 -277 279 0
280 -277 38 0
-280 277 279 0
-280 277 38 0
280 -277 37 -40 0
280 -277 -37 40 0
-280 277 37 -40 0
-280 277 -37 40 0
280 277 -279 37 40 -38 0
280 277 -279 -37 -40 -38 0
-280 -277 -279 37 40 -38 0
-280 -277 -279 -37 -40 -38 0
282 279 -37 0
282 -279 37 0
-282 279 37 0
-282 -279 -37 0
281 40 -38 0
281 -40 38 0
-281 40 38 0
-281 -40 -38 0
283 -280 282 0
283 -280 36 0
-283 280 282 0
-283 280 36 0
283 -280 35 -38 0
283 -280 -35 38 0
-283 280 35 -38 0
-283 280 -35 38 0
283 280 -282 35 38 -36 0
283 280 -282 -35 -38 -36 0
-283 -280 -282 35 38 -36 0
-283 -280 -282 -35 -38 -36 0
285 282 -35 0
285 -282 35 0
-285 282 35 0
-285 -282 -35 0
284 38 -36 0
284 -38 36 0
-284 38 36 0
-284 -38 -36 0
286 -283 285 0
286 -283 34 0
-286 283 285 0
-286 283 34 0
286 -283 33 -36 0
286 -283 -33 36 0
-286 283 33 -36 0
-286 283 -33 36 0
286 283 -285 33 36 -34 0
286 283 -285 -33 -36 -34 0
-286 -283 -285 33 36 -34 0
-286 -283 -285 -33 -36 -34 0
288 285 -33 0
288 -285 33 0
-288 285 33 0
-288 -285 -33 0
287 36 -34 0
287 -36 34 0
-287 36 34 0
-287 -36 -34 0
289 -286 288 0
289 -286 32 0
-289 286 288 0
-289 286 32 0
289 -286 31 -34 0
289 -286 -31 34 0
-289 286 31 -34 0
-289 286 -31 34 0
289 286 -288 31 34 -32 0
289 286 -288 -31 -34 -32 0
-289 -286 -288 31 34 -32 0
-289 -286 -288 -31 -34 -32 0
291 288 -31 0
291 -288 31 0
-291 288 31 0
-291 -288 -31 0
290 34 -32 0
290 -34 32 0
-290 34 32 0
-290 -34 -32 0
292 -289 291 0
292 -289 30 0
-292 289 291 0
-292 289 30 0
292 -289 29 -32 0
292 -289 -29 32 0
-292 289 29 -32 0
-292 289 -29 32 0
292 289 -291 29 32 -30 0
292 289 -291 -29 -32 -30 0
-292 -289 -291 29 32 -30 0
-292 -289 -291 -29 -32 -30 0
294 291 -29 0
294 -291 29 0
-294 291 29 0
-294 -291 -29 0
293 32 -30 0
293 -32 30 0
-293 32 30 0
-293 -32 -30 0
295 -292 294 0
295 -292 28 0
-295 292 294 0
-295 292 28 0
295 -292 27 -30 0
295 -292 -27 30 0
-295 292 27 -30 0
-295 292 -27 30 0
295 292 -294 27 30 -28 0
295 292 -294 -27 -30 -28 0
-295 -292 -294 27 30 -28 0
-295 -292 -294 -27 -30 -28 0
297 294 -27 0
297 -294 27 0
-297 294 27 0
-297 -294 -27 0
296 30 -28 0
296 -30 28 0
-296 30 28 0
-296 -30 -28 0
298 -295 297 0
298 -295 26 0
-298 295 297 0
-298 295 26 0
298 -295 25 -28 0
298 -295 -25 28 0
-298 295 25 -28 0
-298 295 -25 28 0
298 295 -297 25 28 -26 0
298 295 -297 -25 -28 -26 0
-298 -295 -297 25 28 -26 0
-298 -295 -297 -25 -28 -26 0
300 297 -25 0
300 -297 25 0
-300 297 25 0
-300 -297 -25 0
299 28 -26 0
299 -28 26 0
-299 28 26 0
-299 -28 -26 0
301 -298 300 0
301 -298 24 0
-301 298 300 0
-301 298 24 0
301 -298 23 -26 0
301 -298 -23 26 0
-301 298 23 -26 0
-301 298 -23 26 0
301 298 -300 23 26 -24 0
301 298 -300 -23 -26 -24 0
-301 -298 -300 23 26 -24 0
-301 -298 -300 -23 -26 -24 0
303 300 -23 0
303 -300 23 0
-303 300 23 0
-303 -300 -23 0
302 26 -24 0
302 -26 24 0
-302 26 24 0
-302 -26 -24 0
304 -301 303 0
304 -301 22 0
-304 301 303 0
-304 301 22 0
304 -301 21 -24 0
304 -301 -21 24 0
-304 301 21 -24 0
-304 301 -21 24 0
304 301 -303 21 24 -22 0
304 301 -303 -21 -24 -22 0
-304 -301 -303 21 24 -22 0
-304 -301 -303 -21 -24 -22 0
306 303 -21 0
306 -303 21 0
-306 303 21 0
-306 -303 -21 0
305 24 -22 0
305 -24 22 0
-305 24 22 0
-305 -24 -22 0
307 -304 306 0
307 -304 20 0
-307 304 306 0
-307 304 20 0
307 -304 19 -22 0
307 -304 -19 22 0
-307 304 19 -22 0
-307 304 -19 22 0
307 304 -306 19 22 -20 0
307 304 -306 -19 -22 -20 0
-307 -304 -306 19 22 -20 0
-307 -304 -306 -19 -22 -20 0
309 306 -19 0
309 -306 19 0
-309 306 19 0
-309 -306 -19 0
308 22 -20 0
308 -22 20 0
-308 22 20 0
-308 -22 -20 0
310 -307 309 0
310 -307 18 0
-310 307 309 0
-310 307 18 0
310 -307 17 -20 0
310 -307 -17 20 0
-310 307 17 -20 0
-310 307 -17 20 0
310 307 -309 17 20 -18 0
310 307 -309 -17 -20 -18 0
-310 -307 -309 17 20 -18 0
-310 -307 -309 -17 -20 -18 0
312 309 -17 0
312 -309 17 0
-312 309 17 0
-312 -309 -17 0
311 20 -18 0
311 -20 18 0
-311 20 18 0
-311 -20 -18 0
313 -310 312 0
313 -310 16 0
-313 310 312 0
-313 310 16 0
313 -310 15 -18 0
313 -310 -15 18 0
-313 310 15 -18 0
-313 310 -15 18 0
313 310 -312 15 18 -16 0
313 310 -312 -15 -18 -16 0
-313 -310 -312 15 18 -16 0
-313 -310 -312 -15 -18 -16 0
315 312 -15 0
315 -312 15 0
-315 312 15 0
-315 -312 -15 0
314 18 -16 0
314 -18 16 0
-314 18 16 0
-314 -18 -16 0
316 -313 315 0
316 -313 14 0
-316 313 315 0
-316 313 14 0
316 -313 13 -16 0
316 -313 -13 16 0
-316 313 13 -16 0
-316 313 -13 16 0
316 313 -315 13 16 -14 0
316 313 -315 -13 -16 -14 0
-316 -313 -315 13 16 -14 0
-316 -313 -315 -13 -16 -14 0
318 315 -13 0
318 -315 13 0
-318 315 13 0
-318 -315 -13 0
317 16 -14 0
317 -16 14 0
-317 16 14 0
-317 -16 -14 0
319 -316 318 0
319 -316 12 0
-319 316 318 0
-319 316 12 0
319 -316 11 -14 0
319 -316 -11 14 0
-319 316 11 -14 0
-319 316 -11 14 0
319 316 -318 11 14 -12 0
319 316 -318 -11 -14 -12 0
-319 -316 -318 11 14 -12 0
-319 -316 -318 -11 -14 -12 0
321 318 -11 0
321 -318 11 0
-321 318 11 0
-321 -318 -11 0
320 14 -12 0
320 -14 12 0
-320 14 12 0
-320 -14 -12 0
322 -319 321 0
322 -319 10 0
-322 319 321 0
-322 319 10 0
322 -319 9 -12 0
322 -319 -9 12 0
-322 319 9 -12 0
-322 319 -9 12 0
322 319 -321 9 12 -10 0
322 319 -321 -9 -12 -10 0
-322 -319 -321 9 12 -10 0
-322 -319 -321 -9 -12 -10 0
324 321 -9 0
324 -321 9 0
-324 321 9 0
-324 -321 -9 0
323 12 -10 0
323 -12 10 0
-323 12 10 0
-323 -12 -10 0
325 -322 324 0
325 -322 8 0
-325 322 324 0
-325 322 8 0
325 -322 7 -10 0
325 -322 -7 10 0
-325 322 7 -10 0
-325 322 -7 10 0
325 322 -324 7 10 -8 0
325 322 -324 -7 -10 -8 0
-325 -322 -324 7 10 -8 0
-325 -322 -324 -7 -10 -8 0
327 324 -7 0
327 -324 7 0
-327 324 7 0
-327 -324 -7 0
326 10 -8 0
326 -10 8 0
-326 10 8 0
-326 -10 -8 0
328 -325 327 0
328 -325 6 0
-328 325 327 0
-328 325 6 0
328 -325 5 -8 0
328 -325 -5 8 0
-328 325 5 -8 0
-328 325 -5 8 0
328 325 -327 5 8 -6 0
328 325 -327 -5 -8 -6 0
-328 -325 -327 5 8 -6 0
-328 -325 -327 -5 -8 -6 0
330 327 -5 0
330 -327 5 0
-330 327 5 0
-330 -327 -5 0
329 8 -6 0
329 -8 6 0
-329 8 6 0
-329 -8 -6 0
331 -328 330 0
331 -328 4 0
-331 328 330 0
-331 328 4 0
331 -328 3 -6 0
331 -328 -3 6 0
-331 328 3 -6 0
-331 328 -3 6 0
331 328 -330 3 6 -4 0
331 328 -330 -3 -6 -4 0
-331 -328 -330 3 6 -4 0
-331 -328 -330 -3 -6 -4 0
333 330 -3 0
333 -330 3 0
-333 330 3 0
-333 -330 -3 0
332 6 -4 0
332 -6 4 0
-332 6 4 0
-332 -6 -4 0
334 -331 333 0
334 -331 2 0
-334 331 333 0
-334 331 2 0
334 -331 1 -4 0
334 -331 -1 4 0
-334 331 1 -4 0
-334 331 -1 4 0
334 331 -333 1 4 -2 0
334 331 -333 -1 -4 -2 0
-334 -331 -333 1 4 -2 0
-334 -331 -333 -1 -4 -2 0
336 333 -1 0
336 -333 1 0
-336 333 1 0
-336 -333 -1 0
335 4 -2 0
335 -4 2 0
-335 4 2 0
-335 -4 -2 0
-336 0
-333 0
-335 0
-330 0
-332 0
-327 0
-329 0
-324 0
-326 0
-321 0
-323 0
-318 0
-320 0
-315 0
-317 0
-312 0
-314 0
-309 0
-311 0
-306 0
-308 0
-303 0
-305 0
-300 0
-302 0
-297 0
-299 0
-294 0
-296 0
-291 0
-293 0
-288 0
-290 0
-285 0
-287 0
-282 0
-284 0
-279 0
-281 0
-276 0
-278 0
-273 0
-275 0
-270 0
-272 0
-267 0
-269 0
-264 0
-266 0
-261 0
-263 0
-258 0
-260 0
-255 0
-257 0
-252 0
-254 0
-249 0
-251 0
-246 0
-248 0
-243 0
-245 0
-240 0
-242 0
-237 0
-239 0
-234 0
-236 0
-231 0
-233 0
-228 0
-230 0
-225 0
-227 0
-222 0
-224 0
-219 0
-221 0
-216 0
-218 0
-213 0
-215 0
-210 0
-212 0
-207 0
-209 0
-204 0
-206 0
-201 0
-203 0
-198 0
-200 0
-195 0
-197 0
-192 0
-194 0
-189 0
-191 0
-186 0
-188 0
-183 0
-185 0
-180 0
-182 0
-177 0
-179 0
-174 0
-176 0
-171 0
-173 0
-168 0
-170 0
-165 0
-167 0
-162 0
-164 0
-159 0
-161 0
-156 0
-158 0
-153 0
-155 0
-150 0
-152 0
-147 0
-149 0
-144 0
-146 0
-137 0
-143 0
